GLPSOL--GLPK LP/MIP Solver 5.0
Parameter(s) specified in the command line:
 --lp ../modeles/4_204.lp --log 4_204.log
Reading problem data from '../modeles/4_204.lp'...
833 rows, 1640 columns, 5724 non-zeros
816 integer variables, all of which are binary
2483 lines were read
GLPK Integer Optimizer 5.0
833 rows, 1640 columns, 5724 non-zeros
816 integer variables, all of which are binary
Preprocessing...
808 constraint coefficient(s) were reduced
833 rows, 1636 columns, 5720 non-zeros
816 integer variables, all of which are binary
Scaling...
 A: min|aij| =  3.845e-04  max|aij| =  4.000e+00  ratio =  1.040e+04
GM: min|aij| =  9.901e-02  max|aij| =  1.010e+01  ratio =  1.020e+02
EQ: min|aij| =  9.804e-03  max|aij| =  1.000e+00  ratio =  1.020e+02
2N: min|aij| =  7.812e-03  max|aij| =  1.755e+00  ratio =  2.246e+02
Constructing initial basis...
Size of triangular part is 833
Solving LP relaxation...
GLPK Simplex Optimizer 5.0
833 rows, 1636 columns, 5720 non-zeros
      0: obj =   8.000000000e+00 inf =   1.950e+01 (9)
     59: obj =   3.878767485e-01 inf =   0.000e+00 (0)
*   233: obj =  -1.999615532e+00 inf =   4.506e-16 (0)
OPTIMAL LP SOLUTION FOUND
Integer optimization begins...
Long-step dual simplex will be used
+   233: mip =     not found yet >=              -inf        (1; 0)
+   463: >>>>>  -1.999615532e+00 >=  -1.999615532e+00 < 0.1% (229; 0)
+   463: mip =  -1.999615532e+00 >=     tree is empty   0.0% (0; 457)
INTEGER OPTIMAL SOLUTION FOUND
Time used:   0.2 secs
Memory used: 2.4 Mb (2561070 bytes)
